Route #1: 1 4 47 32 56 10 19 1
Route #2: 1 31 45 14 24 17 3 43 1
Route #3: 1 57 23 33 7 41 51 18 1
Route #4: 1 6 48 37 22 42 30 54 5 50 1
Route #5: 1 13 39 49 34 55 44 2 11 1
Route #6: 1 9 16 26 52 8 12 15 21 1
Route #7: 1 38 40 27 20 35 1
Route #8: 1 29 28 53 25 46 1
Route #9: 1 36 1
cost 1773.384931953351
